peakDumbCharging = 18500; 
Machine = anon_enum(16); 
machineSpeed = [3700,3700,3700,3700,3700,3700,3700,3700,3700,3700,3700,3700,3700,3700,3700,3700]; 
machineLoad = [3700,3700,3700,3700,3700,3700,3700,3700,3700,3700,3700,3700,3700,3700,3700,3700]; 
Car = anon_enum(20); 
demandCar = [5160,5960,11720,1200,11960,7680,23920,2800,8160,15920,3240,3800,4280,1480,16720,11600,3400,13880,1680,21680]; 
arrivalCar = [71,64,63,63,62,61,56,56,54,53,48,45,44,39,39,38,37,36,36,26]; 
departureCar = [73,67,68,64,71,66,66,58,57,62,50,48,48,42,48,42,39,42,38,42]; 
